Mixed Integer Linear Problem.log
Tried aggregator 1 time.
MIP Presolve eliminated 93 rows and 54 columns.
MIP Presolve modified 15 coefficients.
Reduced MIP has 45 rows, 90 columns, and 162 nonzeros.
Reduced MIP has 15 binaries, 75 generals, 0 SOSs, and 0 indicators.
Presolve time = 0.00 sec. (0.19 ticks)
Found incumbent of value 1483600.000000 after 0.01 sec. (0.78 ticks)
Probing time = 0.00 sec. (0.01 ticks)
Tried aggregator 2 times.
MIP Presolve eliminated 15 rows and 0 columns.
Aggregator did 4 substitutions.
Reduced MIP has 26 rows, 86 columns, and 139 nonzeros.
Reduced MIP has 15 binaries, 71 generals, 0 SOSs, and 0 indicators.
Presolve time = 0.00 sec. (0.12 ticks)
Probing time = 0.00 sec. (0.01 ticks)
MIP emphasis: balance optimality and feasibility.
MIP search method: dynamic search.
Parallel mode: deterministic, using up to 4 threads.
Root relaxation solution time = 0.00 sec. (0.05 ticks)

        Nodes                                         Cuts/
   Node  Left     Objective  IInf  Best Integer    Best Bound    ItCnt     Gap

*     0+    0                      1483600.0000        0.0000        0  100.00%
*     0+    0                       583060.0000        0.0000        0  100.00%
      0     0        7.8375     5   583060.0000        7.8375        0  100.00%
      0     0   481437.5000    11   583060.0000      Cuts: 35       36   17.43%
      0     0   481437.5000    17   583060.0000      Cuts: 27       62   17.43%
      0     0   481437.5000    12   583060.0000      Cuts: 12       72   17.43%
      0     0   481437.5000    14   583060.0000      Cuts: 12       78   17.43%
*     0+    0                       481500.0000   481437.5000       78    0.01%

Repeating presolve.
Tried aggregator 2 times.
MIP Presolve eliminated 10 rows and 55 columns.
Aggregator did 9 substitutions.
Reduced MIP has 7 rows, 22 columns, and 36 nonzeros.
Reduced MIP has 0 binaries, 22 generals, 0 SOSs, and 0 indicators.
Presolve time = 0.00 sec. (0.06 ticks)
Tried aggregator 1 time.
Reduced MIP has 7 rows, 22 columns, and 36 nonzeros.
Reduced MIP has 0 binaries, 22 generals, 0 SOSs, and 0 indicators.
Presolve time = 0.00 sec. (0.02 ticks)
Represolve time = 0.00 sec. (0.13 ticks)
MIP emphasis: balance optimality and feasibility.
MIP search method: dynamic search.
Parallel mode: deterministic, using up to 4 threads.
Root relaxation solution time = 0.00 sec. (0.04 ticks)

        Nodes                                         Cuts/
   Node  Left     Objective  IInf  Best Integer    Best Bound    ItCnt     Gap

*     0+    0                       481500.0000   481437.5000      104    0.01%
      0     0   481437.5000     2   481500.0000   481437.5000      104    0.01%
      0     0        cutoff         481500.0000   481437.5000      104    0.01%
Elapsed time = 0.03 sec. (3.16 ticks, tree = 0.00 MB, solutions = 3)

Mixed integer rounding cuts applied:  4
Gomory fractional cuts applied:  4

Root node processing (before b&c):
  Real time             =    0.03 sec. (3.16 ticks)
Parallel b&c, 4 threads:
  Real time             =    0.00 sec. (0.00 ticks)
  Sync time (average)   =    0.00 sec.
  Wait time (average)   =    0.00 sec.
                          ------------
Total (root+branch&cut) =    0.03 sec. (3.16 ticks)

Solution status = Optimal

Total Cost 481500.0


The values of variables y_it :

y[1][0] = 160.0
y[1][1] = 300.0
y[1][2] = 181.0
y[1][3] = 300.0
y[1][4] = 300.0
y[1][5] = 300.0
y[2][0] = 100.0
y[2][1] = 146.0
y[2][2] = 155.0
y[2][3] = 155.0
y[2][4] = 200.0
y[2][5] = 199.0
y[3][1] = 14.0
y[3][2] = 1.0
y[3][3] = 21.0
y[3][4] = 22.0
y[3][5] = 45.0
The values of variables v_ijt :

v[i=1][j=2][t=2] = 67.0
v[i=1][j=2][t=3] = 300.0
v[i=1][j=2][t=4] = 155.0
v[i=1][j=3][t=1] = 290.0
v[i=1][j=3][t=5] = 170.0
v[i=2][j=2][t=2] = 9.0
v[i=2][j=2][t=4] = 123.0
v[i=2][j=3][t=1] = 126.0
v[i=2][j=3][t=5] = 78.0
v[i=3][j=2][t=2] = 1.0
v[i=3][j=2][t=3] = 20.0
v[i=3][j=2][t=4] = 1.0
v[i=3][j=3][t=1] = 14.0
v[i=3][j=3][t=5] = 38.0

The values of variables epsilon_jt :
Epsilon[j=1][t=1] = 1.0
Epsilon[j=1][t=2] = 1.0
Epsilon[j=1][t=3] = 1.0
Epsilon[j=1][t=4] = 1.0
Epsilon[j=1][t=5] = 1.0
Epsilon[j=2][t=1] = 1.0
Epsilon[j=2][t=2] = 991.0
Epsilon[j=2][t=3] = 961.0
Epsilon[j=2][t=4] = 961.0
Epsilon[j=2][t=5] = 1.0
Epsilon[j=3][t=1] = 942.0
Epsilon[j=3][t=2] = 1.0
Epsilon[j=3][t=3] = 1.0
Epsilon[j=3][t=4] = 1.0
Epsilon[j=3][t=5] = 962.0

The values of variables alpha_jt :
Alpha[j=2][t=2] = 1.0
Alpha[j=2][t=3] = 1.0
Alpha[j=2][t=4] = 1.0
Alpha[j=3][t=1] = 1.0
Alpha[j=3][t=5] = 1.0

The values of variables delta_ijt :
Delta[i=1][j=1][t=1] = 1.0
Delta[i=1][j=1][t=2] = 1.0
Delta[i=1][j=1][t=3] = 1.0
Delta[i=1][j=1][t=4] = 1.0
Delta[i=1][j=1][t=5] = 1.0
Delta[i=1][j=2][t=1] = 1.0
Delta[i=1][j=2][t=2] = 1.0
Delta[i=1][j=2][t=3] = 1.0
Delta[i=1][j=2][t=4] = 1.0
Delta[i=1][j=2][t=5] = 1.0
Delta[i=1][j=3][t=1] = 1.0
Delta[i=1][j=3][t=2] = 1.0
Delta[i=1][j=3][t=3] = 1.0
Delta[i=1][j=3][t=4] = 1.0
Delta[i=1][j=3][t=5] = 1.0
Delta[i=2][j=1][t=1] = 1.0
Delta[i=2][j=1][t=2] = 1.0
Delta[i=2][j=1][t=3] = 1.0
Delta[i=2][j=1][t=4] = 1.0
Delta[i=2][j=1][t=5] = 1.0
Delta[i=2][j=2][t=1] = 1.0
Delta[i=2][j=2][t=2] = 1.0
Delta[i=2][j=2][t=3] = 1.0
Delta[i=2][j=2][t=4] = 1.0
Delta[i=2][j=2][t=5] = 1.0
Delta[i=2][j=3][t=1] = 1.0
Delta[i=2][j=3][t=2] = 1.0
Delta[i=2][j=3][t=3] = 1.0
Delta[i=2][j=3][t=4] = 1.0
Delta[i=2][j=3][t=5] = 1.0
Delta[i=3][j=1][t=1] = 1.0
Delta[i=3][j=1][t=2] = 1.0
Delta[i=3][j=1][t=3] = 1.0
Delta[i=3][j=1][t=4] = 1.0
Delta[i=3][j=1][t=5] = 1.0
Delta[i=3][j=2][t=1] = 1.0
Delta[i=3][j=2][t=2] = 1.0
Delta[i=3][j=2][t=3] = 1.0
Delta[i=3][j=2][t=4] = 1.0
Delta[i=3][j=2][t=5] = 1.0
Delta[i=3][j=3][t=1] = 1.0
Delta[i=3][j=3][t=2] = 1.0
Delta[i=3][j=3][t=3] = 1.0
Delta[i=3][j=3][t=4] = 1.0
Delta[i=3][j=3][t=5] = 1.0

The values of variables lambda_t :
Lambda[0] = 0.0
Lambda[1] = 0.0
Lambda[2] = 0.0
Lambda[3] = 0.0
Lambda[4] = 0.0
